100
1000
250
0 0
-10 -38
-10 -38
-10 -38
-10 -38
-10 -38
-10 -38
-10 -38
-10 -38
-10 -38
-10 -38
-10 -38
-10 -38
-10 -38
-10 -38
-10 -38
-10 -38
-10 -38
-10 -38
-10 -38
-10 -38
-10 -38
-10 -38
-10 -38
-10 -38
-10 -38
40 35
40 35
40 35
40 35
40 35
40 35
40 35
40 35
40 35
40 35
40 35
40 35
40 35
40 35
40 35
40 35
40 35
40 35
40 35
40 35
40 35
40 35
40 35
40 35
40 35
-40 -13
-40 -13
-40 -13
-40 -13
-40 -13
-40 -13
-40 -13
-40 -13
-40 -13
-40 -13
-40 -13
-40 -13
-40 -13
-40 -13
-40 -13
-40 -13
-40 -13
-40 -13
-40 -13
-40 -13
-40 -13
-40 -13
-40 -13
-40 -13
-40 -13
-29 20
-29 20
-29 20
-29 20
-29 20
-29 20
-29 20
-29 20
-29 20
-29 20
-29 20
-29 20
-29 20
-29 20
-29 20
-29 20
-29 20
-29 20
-29 20
-29 20
-29 20
-29 20
-29 20
-29 20
-29 20
-13 -10
-13 -10
-13 -10
-13 -10
-13 -10
-13 -10
-13 -10
-13 -10
-13 -10
-13 -10
-13 -10
-13 -10
-13 -10
-13 -10
-13 -10
-13 -10
-13 -10
-13 -10
-13 -10
-13 -10
-13 -10
-13 -10
-13 -10
-13 -10
-13 -10
18 -29
-30 36
-13 -7
30 -2
-36 18
-21 30
40 -9
8 10
11 -38
-17 -6
-5 40
-21 35
14 -10
14 13
-5 37
-13 18
27 -35
-33 8
-3 36
1 -35
-27 -38
-22 -6
-2 16
12 -16
40 -13
18 -29
-30 36
-13 -7
30 -2
-36 18
-21 30
40 -9
8 10
11 -38
-17 -6
-5 40
-21 35
14 -10
14 13
-5 37
-13 18
27 -35
-33 8
-3 36
1 -35
-27 -38
-22 -6
-2 16
12 -16
40 -13
18 -29
-30 36
-13 -7
30 -2
-36 18
-21 30
40 -9
8 10
11 -38
-17 -6
-5 40
-21 35
14 -10
14 13
-5 37
-13 18
27 -35
-33 8
-3 36
1 -35
-27 -38
-22 -6
-2 16
12 -16
40 -13
18 -29
-30 36
-13 -7
30 -2
-36 18
-21 30
40 -9
8 10
11 -38
-17 -6
-5 40
-21 35
14 -10
14 13
-5 37
-13 18
27 -35
-33 8
-3 36
1 -35
-27 -38
-22 -6
-2 16
12 -16
40 -13
18 -29
-30 36
-13 -7
30 -2
-36 18
-21 30
40 -9
8 10
11 -38
-17 -6
-5 40
-21 35
14 -10
14 13
-5 37
-13 18
27 -35
-33 8
-3 36
1 -35
-27 -38
-22 -6
-2 16
12 -16
40 -13
0 0 
59
51
56
56
56
55
56
54
56
54
54
53
56
57
57
60
52
55
52
54
59
56
54
51
51
53
55
56
59
53
52
56
56
54
53
53
54
53
56
57
56
53
53
56
56
52
57
56
56
55
59
52
56
56
60
55
56
54
56
56
56
55
52
53
54
52
55
56
59
52
52
54
53
59
56
54
55
52
52
54
60
59
54
57
56
52
54
56
56
54
54
53
54
53
57
56
57
56
52
56
57
56
53
56
52
56
51
56
57
57
51
57
57
56
53
56
56
59
55
56
60
51
57
56
59
59
51
56
56
56
55
56
54
56
54
54
53
56
57
57
60
52
55
52
54
59
56
54
51
51
53
55
56
59
53
52
56
56
54
53
53
54
53
56
57
56
53
53
56
56
52
57
56
56
55
59
52
56
56
60
55
56
54
56
56
56
55
52
53
54
52
55
56
59
52
52
54
53
59
56
54
55
52
52
54
60
59
54
57
56
52
54
56
56
54
54
53
54
53
57
56
57
56
52
56
57
56
53
56
52
56
51
56
57
57
51
57
57
56
53
56
56
59
55
56
60
51
57
56
59
